50
750 750
1 587 510
2 581 173
3 575 242
4 561 313
5 551 55
6 538 135
7 538 751
8 538 0
9 535 219
10 534 817
11 531 99
12 523 631
13 510 324
14 495 851
15 485 838
16 481 281
17 451 190
18 450 600
19 444 637
20 433 959
21 430 715
22 428 376
23 422 647
24 402 289
25 396 389
26 371 627
27 361 505
28 356 403
29 334 653
30 334 324
31 332 880
32 318 356
33 317 53
34 308 210
35 306 874
36 305 431
37 300 90
38 282 457
39 276 452
40 263 610
41 260 632
42 257 898
43 224 900
44 215 246
45 210 899
46 207 487
47 190 568
48 171 944
49 170 19
50 164 760
